set I := 1 2;
set J := 1 2;
set T := 1 2;

param c :=   1 2.0
             2 3.0;

param a :=   1 1 2.0
             1 2 6.0
             2 1 3.0
             2 2 3.4;

param f :=   1 1 7.0
             1 2 10.0
             2 1 12.0
             2 2 15.0 ;

param b :=  50;

param d :=
1 1 200
2 1 180

1 2 200
2 2 180;